c File: data_files/evolved_graphs/g3575.col
c
c Auto generated graph
c
p edge 100 1108
e 1 3
e 1 5
e 1 11
e 1 15
e 1 17
e 1 18
e 1 20
e 1 25
e 1 34
e 1 37
e 1 45
e 1 46
e 1 50
e 1 55
e 1 57
e 1 58
e 1 64
e 1 71
e 1 77
e 1 79
e 1 87
e 1 99
e 2 5
e 2 7
e 2 10
e 2 11
e 2 12
e 2 14
e 2 16
e 2 31
e 2 43
e 2 48
e 2 53
e 2 55
e 2 59
e 2 61
e 2 64
e 2 73
e 2 75
e 2 78
e 2 80
e 2 89
e 2 96
e 3 5
e 3 6
e 3 7
e 3 13
e 3 19
e 3 20
e 3 27
e 3 30
e 3 32
e 3 36
e 3 39
e 3 41
e 3 42
e 3 44
e 3 45
e 3 54
e 3 55
e 3 57
e 3 64
e 3 80
e 3 97
e 4 6
e 4 7
e 4 10
e 4 15
e 4 16
e 4 17
e 4 18
e 4 19
e 4 20
e 4 21
e 4 25
e 4 26
e 4 30
e 4 31
e 4 32
e 4 42
e 4 47
e 4 48
e 4 59
e 4 69
e 4 72
e 4 76
e 4 83
e 4 88
e 4 95
e 5 7
e 5 10
e 5 11
e 5 12
e 5 13
e 5 15
e 5 16
e 5 27
e 5 35
e 5 55
e 5 58
e 5 60
e 5 62
e 5 63
e 5 74
e 5 77
e 5 78
e 5 90
e 5 93
e 5 94
e 6 7
e 6 8
e 6 12
e 6 13
e 6 17
e 6 19
e 6 21
e 6 22
e 6 25
e 6 31
e 6 32
e 6 39
e 6 40
e 6 45
e 6 46
e 6 49
e 6 52
e 6 63
e 6 69
e 6 71
e 6 72
e 6 73
e 6 76
e 6 81
e 6 85
e 6 88
e 6 89
e 7 14
e 7 17
e 7 19
e 7 21
e 7 22
e 7 25
e 7 39
e 7 50
e 7 52
e 7 62
e 7 70
e 7 78
e 7 79
e 7 93
e 7 97
e 7 98
e 8 11
e 8 12
e 8 19
e 8 20
e 8 21
e 8 36
e 8 44
e 8 48
e 8 52
e 8 53
e 8 56
e 8 58
e 8 59
e 8 61
e 8 65
e 8 72
e 8 77
e 8 83
e 8 91
e 8 92
e 8 94
e 8 97
e 8 98
e 9 16
e 9 17
e 9 19
e 9 23
e 9 28
e 9 36
e 9 40
e 9 42
e 9 45
e 9 48
e 9 49
e 9 51
e 9 55
e 9 56
e 9 60
e 9 67
e 9 68
e 9 71
e 9 72
e 9 75
e 9 79
e 9 80
e 9 81
e 9 85
e 10 12
e 10 18
e 10 41
e 10 44
e 10 52
e 10 53
e 10 58
e 10 61
e 10 62
e 10 65
e 10 69
e 10 70
e 10 86
e 10 87
e 10 88
e 10 89
e 11 17
e 11 18
e 11 20
e 11 21
e 11 26
e 11 28
e 11 30
e 11 42
e 11 43
e 11 44
e 11 48
e 11 50
e 11 67
e 11 69
e 11 70
e 11 75
e 11 77
e 11 80
e 11 81
e 12 16
e 12 21
e 12 24
e 12 29
e 12 31
e 12 42
e 12 47
e 12 54
e 12 58
e 12 59
e 12 69
e 12 70
e 12 79
e 12 87
e 12 92
e 13 15
e 13 16
e 13 17
e 13 18
e 13 19
e 13 22
e 13 25
e 13 38
e 13 43
e 13 44
e 13 48
e 13 54
e 13 59
e 13 61
e 13 63
e 13 66
e 13 67
e 13 76
e 13 82
e 13 87
e 13 93
e 13 96
e 14 15
e 14 18
e 14 19
e 14 23
e 14 27
e 14 31
e 14 43
e 14 48
e 14 49
e 14 66
e 14 69
e 14 71
e 14 75
e 14 80
e 14 83
e 14 87
e 15 18
e 15 21
e 15 26
e 15 27
e 15 29
e 15 39
e 15 43
e 15 44
e 15 56
e 15 60
e 15 68
e 15 72
e 15 77
e 15 80
e 15 94
e 16 17
e 16 20
e 16 21
e 16 34
e 16 35
e 16 41
e 16 43
e 16 45
e 16 47
e 16 56
e 16 68
e 16 87
e 16 91
e 16 96
e 16 99
e 17 23
e 17 26
e 17 30
e 17 34
e 17 36
e 17 54
e 17 58
e 17 64
e 17 67
e 17 69
e 17 73
e 17 86
e 18 20
e 18 24
e 18 27
e 18 42
e 18 43
e 18 45
e 18 46
e 18 49
e 18 53
e 18 54
e 18 61
e 18 62
e 18 66
e 18 73
e 18 84
e 18 92
e 19 24
e 19 32
e 19 36
e 19 40
e 19 44
e 19 48
e 19 49
e 19 51
e 19 54
e 19 65
e 19 67
e 19 68
e 19 73
e 20 27
e 20 28
e 20 38
e 20 43
e 20 45
e 20 47
e 20 51
e 20 59
e 20 61
e 20 62
e 20 64
e 20 68
e 20 70
e 20 74
e 20 76
e 20 83
e 20 88
e 20 92
e 20 97
e 21 22
e 21 29
e 21 30
e 21 42
e 21 44
e 21 45
e 21 46
e 21 62
e 21 68
e 21 72
e 21 75
e 21 81
e 21 93
e 21 95
e 21 99
e 22 25
e 22 27
e 22 32
e 22 37
e 22 42
e 22 43
e 22 48
e 22 50
e 22 53
e 22 62
e 22 64
e 22 65
e 22 67
e 22 72
e 22 73
e 22 75
e 23 30
e 23 32
e 23 38
e 23 40
e 23 42
e 23 43
e 23 45
e 23 51
e 23 52
e 23 58
e 23 61
e 23 68
e 23 71
e 23 77
e 23 78
e 23 87
e 23 90
e 23 94
e 24 28
e 24 44
e 24 46
e 24 47
e 24 49
e 24 50
e 24 53
e 24 54
e 24 64
e 24 67
e 24 68
e 24 74
e 24 75
e 24 78
e 24 79
e 24 85
e 25 31
e 25 41
e 25 45
e 25 48
e 25 49
e 25 57
e 25 60
e 25 64
e 25 69
e 25 72
e 25 73
e 25 75
e 25 78
e 25 89
e 25 91
e 26 36
e 26 39
e 26 41
e 26 45
e 26 46
e 26 48
e 26 54
e 26 55
e 26 59
e 26 60
e 26 63
e 26 73
e 26 76
e 26 79
e 26 84
e 26 87
e 26 89
e 26 90
e 26 94
e 26 97
e 27 31
e 27 41
e 27 42
e 27 48
e 27 50
e 27 52
e 27 54
e 27 56
e 27 59
e 27 62
e 27 68
e 27 71
e 27 83
e 27 85
e 27 88
e 27 89
e 27 90
e 27 91
e 27 94
e 28 29
e 28 30
e 28 35
e 28 43
e 28 45
e 28 63
e 28 65
e 28 66
e 28 68
e 28 69
e 28 72
e 28 73
e 28 78
e 28 84
e 28 92
e 28 93
e 29 30
e 29 47
e 29 48
e 29 54
e 29 57
e 29 58
e 29 59
e 29 62
e 29 66
e 29 67
e 29 68
e 29 69
e 29 70
e 29 72
e 29 74
e 29 83
e 29 84
e 29 94
e 29 95
e 29 99
e 30 39
e 30 40
e 30 42
e 30 43
e 30 46
e 30 50
e 30 52
e 30 54
e 30 55
e 30 59
e 30 61
e 30 67
e 30 69
e 30 72
e 30 74
e 30 75
e 30 96
e 30 98
e 31 34
e 31 38
e 31 42
e 31 46
e 31 47
e 31 49
e 31 58
e 31 59
e 31 60
e 31 63
e 31 67
e 31 68
e 31 71
e 31 74
e 31 75
e 31 86
e 32 41
e 32 42
e 32 51
e 32 57
e 32 58
e 32 59
e 32 66
e 32 68
e 32 69
e 32 71
e 32 73
e 32 76
e 32 77
e 32 86
e 32 94
e 33 34
e 33 41
e 33 42
e 33 44
e 33 49
e 33 52
e 33 62
e 33 63
e 33 64
e 33 65
e 33 66
e 33 67
e 33 68
e 33 69
e 33 77
e 33 81
e 33 82
e 33 88
e 33 89
e 33 92
e 33 99
e 34 36
e 34 37
e 34 41
e 34 42
e 34 46
e 34 56
e 34 57
e 34 63
e 34 65
e 34 69
e 34 82
e 34 87
e 34 89
e 35 41
e 35 43
e 35 45
e 35 46
e 35 49
e 35 58
e 35 59
e 35 65
e 35 67
e 35 70
e 35 75
e 35 78
e 35 83
e 35 85
e 35 88
e 35 90
e 35 91
e 36 44
e 36 45
e 36 48
e 36 50
e 36 53
e 36 54
e 36 56
e 36 59
e 36 70
e 36 73
e 36 74
e 36 82
e 36 83
e 36 85
e 36 86
e 36 88
e 36 89
e 37 40
e 37 45
e 37 48
e 37 49
e 37 59
e 37 60
e 37 62
e 37 65
e 37 68
e 37 72
e 37 74
e 37 75
e 37 77
e 37 80
e 37 82
e 37 87
e 38 39
e 38 45
e 38 49
e 38 60
e 38 61
e 38 62
e 38 63
e 38 65
e 38 74
e 38 75
e 38 77
e 38 79
e 38 82
e 38 95
e 38 99
e 39 40
e 39 45
e 39 47
e 39 53
e 39 56
e 39 60
e 39 62
e 39 65
e 39 69
e 39 81
e 39 82
e 39 89
e 39 97
e 40 42
e 40 44
e 40 46
e 40 49
e 40 50
e 40 60
e 40 68
e 40 70
e 40 72
e 40 73
e 40 80
e 40 88
e 40 89
e 40 91
e 40 96
e 41 51
e 41 53
e 41 57
e 41 60
e 41 62
e 41 67
e 41 70
e 41 72
e 41 74
e 41 79
e 41 82
e 41 84
e 41 85
e 41 86
e 42 54
e 42 55
e 42 57
e 42 58
e 42 60
e 42 69
e 42 75
e 42 78
e 42 79
e 42 80
e 42 88
e 42 89
e 43 47
e 43 53
e 43 56
e 43 57
e 43 59
e 43 73
e 43 75
e 43 78
e 43 79
e 43 89
e 43 99
e 44 49
e 44 53
e 44 58
e 44 59
e 44 61
e 44 67
e 44 73
e 44 77
e 44 93
e 45 46
e 45 49
e 45 52
e 45 66
e 45 72
e 45 78
e 45 87
e 46 54
e 46 56
e 46 63
e 46 66
e 46 70
e 46 71
e 46 72
e 46 76
e 46 79
e 46 81
e 46 92
e 46 95
e 47 51
e 47 57
e 47 62
e 47 64
e 47 65
e 47 67
e 47 70
e 47 71
e 47 76
e 47 77
e 47 78
e 47 81
e 47 86
e 47 87
e 47 89
e 47 92
e 47 96
e 47 97
e 48 51
e 48 53
e 48 56
e 48 61
e 48 62
e 48 63
e 48 75
e 48 76
e 48 78
e 48 85
e 48 90
e 49 52
e 49 58
e 49 60
e 49 64
e 49 69
e 49 74
e 49 75
e 49 76
e 49 79
e 49 85
e 49 92
e 50 52
e 50 57
e 50 59
e 50 62
e 50 67
e 50 73
e 50 76
e 50 78
e 50 79
e 50 87
e 50 88
e 50 99
e 51 53
e 51 54
e 51 59
e 51 63
e 51 64
e 51 70
e 51 72
e 51 78
e 51 80
e 52 56
e 52 58
e 52 59
e 52 62
e 52 75
e 52 76
e 52 77
e 52 81
e 52 87
e 52 88
e 52 89
e 52 94
e 53 56
e 53 60
e 53 64
e 53 67
e 53 71
e 53 74
e 53 79
e 53 80
e 53 81
e 53 82
e 53 83
e 53 84
e 53 96
e 54 59
e 54 70
e 54 75
e 54 77
e 54 78
e 54 79
e 54 81
e 54 82
e 54 83
e 54 84
e 54 85
e 54 87
e 55 60
e 55 62
e 55 63
e 55 65
e 55 67
e 55 72
e 55 76
e 55 79
e 55 80
e 55 87
e 55 88
e 55 91
e 55 93
e 56 57
e 56 58
e 56 63
e 56 74
e 56 77
e 56 79
e 56 80
e 56 83
e 56 84
e 56 85
e 56 86
e 56 88
e 56 89
e 56 97
e 57 58
e 57 60
e 57 69
e 57 73
e 57 74
e 57 77
e 57 78
e 57 89
e 57 90
e 57 91
e 57 95
e 57 97
e 58 59
e 58 60
e 58 62
e 58 63
e 58 64
e 58 75
e 58 76
e 58 79
e 58 80
e 58 81
e 58 87
e 58 88
e 58 90
e 58 97
e 59 73
e 59 75
e 59 79
e 60 82
e 60 83
e 60 89
e 60 91
e 61 71
e 61 72
e 61 85
e 61 90
e 61 91
e 62 66
e 62 81
e 62 99
e 63 65
e 63 67
e 63 74
e 63 78
e 63 81
e 63 83
e 63 89
e 63 97
e 64 72
e 64 76
e 64 89
e 64 94
e 64 99
e 65 66
e 65 68
e 65 75
e 65 79
e 65 86
e 65 91
e 66 68
e 66 75
e 66 76
e 66 78
e 66 82
e 66 84
e 66 91
e 67 69
e 67 71
e 67 72
e 67 74
e 67 84
e 68 71
e 68 73
e 68 74
e 68 83
e 68 84
e 68 91
e 68 93
e 69 72
e 69 79
e 69 85
e 69 88
e 69 89
e 69 90
e 70 82
e 70 86
e 70 87
e 70 89
e 70 91
e 70 92
e 70 93
e 70 94
e 71 76
e 71 81
e 71 82
e 71 87
e 71 93
e 71 96
e 72 84
e 72 86
e 72 88
e 72 99
e 73 84
e 73 85
e 73 86
e 73 87
e 73 89
e 73 94
e 73 95
e 73 98
e 74 85
e 74 86
e 74 87
e 74 91
e 74 92
e 74 95
e 74 98
e 75 88
e 75 89
e 75 91
e 75 93
e 75 96
e 75 99
e 76 77
e 76 79
e 76 88
e 76 89
e 76 92
e 76 93
e 76 94
e 76 95
e 76 96
e 77 84
e 77 85
e 77 86
e 77 88
e 77 89
e 77 93
e 77 99
e 78 81
e 78 83
e 78 85
e 78 86
e 78 90
e 78 91
e 78 93
e 78 95
e 78 96
e 79 85
e 79 86
e 79 87
e 79 92
e 79 93
e 80 81
e 80 82
e 80 90
e 80 94
e 80 95
e 80 97
e 80 98
e 81 83
e 81 87
e 81 89
e 81 95
e 81 96
e 81 99
e 82 84
e 82 95
e 83 85
e 83 86
e 83 87
e 83 88
e 83 89
e 83 91
e 83 92
e 83 96
e 84 87
e 84 88
e 84 90
e 84 98
e 85 86
e 85 91
e 85 95
e 86 93
e 86 94
e 86 96
e 87 89
e 87 91
e 87 95
e 88 89
e 88 90
e 88 95
e 90 93
e 90 95
e 90 96
e 90 97
e 90 98
e 90 99
e 91 94
e 91 96
e 91 97
e 91 98
e 92 94
e 92 96
e 92 98
e 93 96
e 94 98
e 94 99
e 96 99
